Cu3Au L12 structure (compressed 2% + jig
   1.00000000000000     
     3.5516715544025819    0.0000604846197370   -0.0002051151084852
     0.0000647115128558    3.5523443732701776    0.0002106898764477
    -0.0002144675727864    0.0002131096878242    3.5525211631176052
   Au   Cu
     1     3
Direct
  0.0048463159050941  0.0006856380258591  0.0001343440061861
  0.5046000406961206  0.5008712965057490  0.0005782844172001
  0.5052903920094477  0.0000510633971142  0.5000040439482768
  0.0052632513893407  0.5003920020712730  0.5002833276283351
 
  0.00000000E+00  0.00000000E+00  0.00000000E+00
  0.00000000E+00  0.00000000E+00  0.00000000E+00
  0.00000000E+00  0.00000000E+00  0.00000000E+00
  0.00000000E+00  0.00000000E+00  0.00000000E+00
