Cu3Au L12 structure (compressed 2% + jiggle)
1.0
3.724000   0.000000   0.000000
0.000000   3.724000   0.000000
0.000000   0.000000   3.724000
Au   Cu
1    3
Direct
0.005000   0.010000  -0.008000
0.512000   0.495000   0.007000
0.490000  -0.011000   0.505000
0.013000   0.508000   0.497000