Cu3Au L12 structure                     
   1.00000000000000     
     3.5925981845443573   -0.0000000000000000   -0.0000000000000000
    -0.0000000000000000    3.5925981845443573    0.0000000000000000
     0.0000000000000000   -0.0000000000000000    3.5925981845443573
   Au   Cu
     1     3
Direct
 -0.0000000000000000 -0.0000000000000000 -0.0000000000000000
  0.5000000000000000  0.5000000000000000 -0.0000000000000000
  0.5000000000000000  0.0000000000000000  0.5000000000000000
 -0.0000000000000000  0.5000000000000000  0.5000000000000000
 
  0.00000000E+00  0.00000000E+00  0.00000000E+00
  0.00000000E+00  0.00000000E+00  0.00000000E+00
  0.00000000E+00  0.00000000E+00  0.00000000E+00
  0.00000000E+00  0.00000000E+00  0.00000000E+00
