KPOINTS — Cu3Au (L12) quick relax
0
Monkhorst-Pack
6 6 6
0 0 0
