Cu3Au L12 structure (expanded 2%)
1.0
3.876000   0.000000   0.000000
0.000000   3.876000   0.000000
0.000000   0.000000   3.876000
Au   Cu
1    3
Direct
0.000000   0.000000   0.000000
0.500000   0.500000   0.000000
0.500000   0.000000   0.500000
0.000000   0.500000   0.500000