Si (diamond, Fd-3m, 227)  a = 5.43 Å
5.43
1.000000 0.000000 0.000000
0.000000 1.000000 0.000000
0.000000 0.000000 1.000000
Si
8
Direct
0.000000 0.000000 0.000000
0.000000 0.500000 0.500000
0.500000 0.000000 0.500000
0.500000 0.500000 0.000000
0.250000 0.250000 0.250000
0.250000 0.750000 0.750000
0.750000 0.250000 0.750000
0.750000 0.750000 0.250000
