System = Si (diamond) 
PREC   = Accurate
ENCUT  = 500      
ISMEAR = -5       
EDIFF  = 1E-6
LWAVE  = .FALSE.
LCHARG = .TRUE.
