AsGaIn/AB_cF8_216_c_a.AB:POCC_P0-0.5xB-0.5xC_P1-1xA params=-1 SG=216 [ANRL doi: 10.1016/j.commatsci.2017.01.017 (part 1), doi: 10.1016/j.commatsci.2018.10.043 (part 2)]
-42.281300 0.001 0.001
   0.00000000000000   0.50000000000000   0.50000000000000
   0.50000000000000   0.00000000000000   0.50000000000000
   0.50000000000000   0.50000000000000   0.00000000000000
1*1 1*0.5 1*0.5 
Direct(3) Partial [A1B0.5C0.5] 
   0.00000000000000   0.00000000000000   0.00000000000000  As    pocc=1  
   0.25000000000000   0.25000000000000   0.25000000000000  Ga    pocc=0.5  
   0.25000000000000   0.25000000000000   0.25000000000000  In    pocc=0.5  
