MgOSi/AB3C_oC20_63_a_cf_c.ABC params=3.1003,3.27443,2.48086,0.077,0.747,0.631,0.936 SG=63 [ANRL doi: 10.1016/j.commatsci.2017.01.017 (part 1), doi: 10.1016/j.commatsci.2018.10.043 (part 2)]
1.000000
   1.55015000000000  -5.07585766450000   0.00000000000000
   1.55015000000000   5.07585766450000   0.00000000000000
   0.00000000000000   0.00000000000000   7.69141025800000
2 6 2 
Direct(10) [A2B6C2] 
   0.00000000000000   0.00000000000000   0.00000000000000  Mg    
   0.00000000000000   0.00000000000000   0.50000000000000  Mg    
   0.92300000000000   0.07700000000000   0.25000000000000  O     
   0.07700000000000   0.92300000000000   0.75000000000000  O     
   0.36900000000000   0.63100000000000   0.93600000000000  O     
   0.63100000000000   0.36900000000000   0.43600000000000  O     
   0.36900000000000   0.63100000000000   0.56400000000000  O     
   0.63100000000000   0.36900000000000   0.06400000000000  O     
   0.25300000000000   0.74700000000000   0.25000000000000  Si    
   0.74700000000000   0.25300000000000   0.75000000000000  Si    
